benchmarks/bfuzz0/7668861526043282149210307881677515421.smt2
(set-logic QF_FP)
(declare-const x0 (_ FloatingPoint 8 24))
(declare-const x1 (_ FloatingPoint 8 24))
(declare-const x2 (_ FloatingPoint 8 24))
(declare-const x3 (_ FloatingPoint 8 24))
(declare-const x4 (_ FloatingPoint 8 24))
(declare-const x5 (_ FloatingPoint 8 24))
(declare-const x6 (_ FloatingPoint 8 24))
(declare-const x7 (_ FloatingPoint 8 24))
(declare-const x8 (_ FloatingPoint 8 24))
(declare-const x9 (_ FloatingPoint 8 24))
(declare-const x10 (_ FloatingPoint 8 24))
(declare-const x11 (_ FloatingPoint 8 24))
(declare-const x12 (_ FloatingPoint 8 24))
(declare-const x13 (_ FloatingPoint 8 24))
(declare-const x14 (_ FloatingPoint 8 24))
(declare-const x15 (_ FloatingPoint 8 24))
(assert (fp.geq (fp.div RNE x5 x3) (fp.mul RNE x14 x11)))
(assert (fp.gt (fp.div RNE x6 x8) (fp.neg x2)))
(assert (fp.lt (fp.mul RNE x14 x5) (fp.add RNE x10 x11)))
(assert (fp.lt (fp.sub RNE x0 x3) (fp.neg x2)))
(assert (fp.lt (fp.div RNE x10 x10) (fp.div RNE x12 x2)))
(check-sat)
