db/data/7668861526043282149210307881677515421.z3.out
sat
-------------------
87.192096164
